p cnf 100 30
x -2 -5 -9 -10 -11 12 -16 -17 -18 -20 -21 23 -25 26 27 -32 33 35 -36 -38 -43 44 -45 49 -50 51 -52 53 -54 55 -57 -61 62 63 -65 67 -73 -75 -76 -79 -80 -81 82 -87 88 -91 92 -93 -94 -100 0
x 1 4 5 -7 -9 13 -15 -16 -20 23 -24 -28 30 31 -33 34 41 42 43 -44 -45 46 50 -53 -55 -56 -59 62 63 -64 69 -72 -73 76 -78 -79 80 -81 -82 -83 -84 85 -86 -87 -88 -89 -90 -91 95 0
x 1 5 -6 7 -11 -12 -13 -14 -16 18 20 21 -25 26 -30 -31 32 35 36 -39 -49 50 52 53 -54 57 60 -62 -64 65 66 71 -73 -74 76 -77 -78 -79 -80 81 -82 87 -90 -91 -92 93 -95 96 -97 0
x -3 5 -7 -12 -13 -14 16 -17 25 27 28 29 31 -35 -38 39 42 43 -44 -45 46 47 -52 -53 54 55 -56 -58 -61 62 63 -64 65 -66 70 71 -72 75 76 -77 -80 82 -84 86 -87 88 91 92 -93 96 97 0
x -4 6 -7 -8 -10 11 12 -14 -15 18 21 24 25 -26 28 -30 -32 -33 -34 39 -40 -41 48 -49 -50 -51 -53 -59 -62 -63 67 68 -69 -71 72 -73 74 75 -77 78 -79 -81 -83 -84 -86 -87 -93 95 96 97 98 0
x 1 -2 -3 -5 -8 9 -10 -11 12 15 -16 -18 23 24 26 28 29 -31 32 36 37 -41 -42 48 -53 55 56 59 -60 61 62 63 -64 67 70 -75 77 78 81 -82 -84 -85 -88 90 -92 98 99 -100 0
x -2 -5 -7 12 13 -15 16 -18 21 22 -24 -25 -26 -28 -30 -34 36 -37 39 40 41 43 48 50 -51 -54 55 56 -60 -61 62 -63 66 69 -71 75 76 79 80 82 87 -88 -89 90 -92 -95 -96 -97 -100 0
x -1 2 -4 8 11 -14 -15 17 18 -19 -20 23 -24 -25 28 -29 32 -34 -38 -42 43 44 -48 52 57 59 -63 -65 67 -69 -71 72 -74 75 -76 -78 -81 -84 87 88 -90 93 95 98 100 0
x 5 -6 7 9 10 -11 -13 -14 15 -17 -19 22 -25 26 -28 -29 34 -36 37 -40 -42 43 44 45 48 51 52 53 54 57 59 63 -64 65 66 -68 -73 -74 77 -79 80 -82 88 90 -91 -92 93 95 96 99 0
x 2 -6 9 -10 -12 -13 -14 15 17 21 22 23 24 26 -29 -30 31 -32 -33 34 -35 -38 -39 42 43 -44 46 49 50 52 53 54 -55 57 58 59 60 -61 -65 66 -67 74 76 78 -79 -81 -84 89 -90 91 -92 -94 -97 -98 100 0
x 1 2 11 13 16 -17 18 -20 -22 24 -25 27 30 31 -32 -34 -35 40 -41 -44 46 47 48 -50 -54 -56 57 59 -61 -62 64 65 -69 71 -72 -73 76 -79 81 82 83 84 -86 87 -88 -91 97 -99 0
x -2 -4 8 -10 11 -12 13 -14 -15 16 -17 -19 -22 24 26 28 -29 30 -32 37 38 42 43 46 -47 49 51 54 55 -56 -57 -60 61 62 65 66 -69 72 74 -78 -79 81 -84 -86 88 -90 -91 92 94 -98 99 0
x 2 9 11 -13 -15 16 17 20 -22 -23 -24 -25 -26 29 -31 -33 36 -39 -40 41 43 -44 46 49 50 -51 53 55 -61 -63 64 66 67 73 74 -75 76 -77 80 -81 82 -84 85 -86 87 -89 91 96 98 0
x -2 9 -16 -17 -22 29 32 -33 -34 38 -40 43 -46 48 50 53 54 55 56 -57 -59 62 -63 64 65 -68 71 73 -79 80 83 87 90 -91 93 98 0
x -1 2 -4 -5 6 -9 -12 -19 25 -26 -28 -29 -30 31 -32 -33 -34 40 -44 -45 -49 -52 57 59 60 -65 67 69 70 -72 73 74 75 76 -77 79 80 -84 85 -86 -89 90 -96 -100 0
x 1 2 -4 -5 7 -9 13 -15 16 18 20 23 24 27 28 -33 35 -36 -38 -40 -41 46 -47 -51 52 -54 62 -63 65 69 71 74 -80 -83 -84 85 86 -88 -91 96 -97 -98 100 0
x -2 3 4 -5 -7 -8 13 -20 -21 -23 -24 25 27 -29 -30 -33 -41 -42 -44 45 46 -48 -51 -58 60 -63 -64 -65 -66 -69 70 72 73 75 -76 -77 81 82 -86 -92 -97 98 99 0
x 1 4 9 11 13 -16 -18 19 -22 -25 -26 -28 33 36 37 38 40 -43 45 46 -48 50 -51 55 -58 -61 -62 63 64 -67 70 71 -75 78 -79 80 82 84 86 -87 -91 93 -94 -96 -98 -99 0
x -3 4 -5 7 -8 9 10 -14 15 18 19 -20 -21 -22 23 24 26 27 30 -31 32 33 34 -37 -39 -42 -43 44 46 50 51 52 -54 -55 56 -58 -59 -61 64 -70 71 74 75 -77 78 -87 -90 -92 -94 95 96 97 98 100 0
x 1 -4 5 7 8 12 -13 15 20 22 25 27 29 30 -31 -33 -34 -35 38 -45 46 47 49 -50 -51 52 -54 56 -57 -65 66 67 -69 70 71 -73 -75 -76 -79 80 -81 -86 87 91 -93 -99 -100 0
x 2 4 5 -8 10 -11 14 15 -16 17 -18 -19 20 22 -24 -29 -30 31 -32 37 38 -40 -45 46 48 49 52 56 57 -61 -62 -63 66 67 -68 -69 72 74 -76 81 82 83 -84 85 -89 -91 92 -93 94 0
x 2 -3 -4 -6 9 -10 14 16 -18 19 22 24 27 -30 32 33 -37 38 -39 -40 42 43 46 47 -48 50 -52 54 -55 60 -67 69 -70 -74 -75 -76 -79 81 -85 88 89 -98 99 0
x 7 -10 11 13 14 16 17 19 -20 22 23 25 26 27 30 -31 -32 -33 34 35 36 -37 39 40 41 -44 48 50 53 -54 56 -57 -60 61 -63 64 65 -66 67 -69 -70 -71 -73 74 -76 -80 -81 -88 -90 -92 93 94 -95 97 98 99 0
x 6 -8 10 -13 15 -16 -18 -19 -22 25 -26 30 31 -32 -33 35 36 -37 38 -39 -40 41 -42 -45 49 50 -51 -53 -54 55 56 -57 59 -63 -65 67 -69 71 72 73 -76 84 -85 86 87 -89 -90 91 -92 -93 -94 95 -97 -98 -100 0
x -1 2 4 5 6 -7 -8 -11 12 14 15 19 20 21 -22 23 -24 28 -33 36 -39 40 -43 -44 -47 51 55 58 59 62 65 -67 -69 -71 74 -76 -77 -78 81 83 84 -85 -86 -87 92 93 95 96 0
x -1 -2 4 6 7 -8 -10 14 15 16 -19 20 22 25 30 31 32 -33 -41 43 45 -47 -48 49 51 54 -58 -61 62 -65 -66 -69 70 72 -74 -75 76 -77 -80 81 -83 84 87 -89 90 91 -96 -98 99 -100 0
x 2 -4 -6 -7 8 -10 11 15 16 -18 19 21 -23 24 26 27 28 -31 -33 -35 36 -40 41 42 -45 47 51 -52 -53 54 -56 57 -58 67 68 -69 -70 -71 -73 75 -76 77 -79 -82 85 86 88 89 91 96 97 100 0
x 2 4 -5 -8 -10 -12 -14 -16 18 -21 25 -27 -28 -30 -31 32 -38 39 -42 43 44 46 -48 49 -50 53 -56 -58 60 62 65 -66 69 -70 73 -74 77 78 80 -84 -85 -88 94 95 96 -97 -98 99 0
x 2 -4 -6 8 10 11 12 -15 16 18 -19 -22 -24 -28 29 -33 34 -35 -38 -39 -40 50 -51 55 56 66 69 72 -78 79 -81 82 -84 85 -90 -91 92 -96 -98 -100 0
x 1 -2 3 -4 -5 6 -8 -9 16 -18 -22 -23 -24 26 -27 28 -35 36 -40 41 -45 46 -50 -52 53 54 58 -59 62 -63 66 -67 -69 -71 -76 -77 -78 -80 -83 -85 -88 -92 -96 97 98 99 0
g -30